(set-logic CHC_LIA)

(synth-fun state ((x_0 Bool) (x_1 Bool) (x_2 Int) (x_3 Int) (x_4 Int) (x_5 Int) (x_6 Int) (x_7 Bool) (x_8 Int) (x_9 Int) (x_10 Int) (x_11 Bool) (x_12 Int) (x_13 Int) (x_14 Int) (x_15 Bool) (x_16 Int) (x_17 Int) (x_18 Int) (x_19 Bool) (x_20 Int) (x_21 Int) (x_22 Int) (x_23 Int) (x_24 Int) (x_25 Int) (x_26 Int) (x_27 Int) (x_28 Int) (x_29 Int) (x_30 Int) (x_31 Bool) (x_32 Bool) (x_33 Bool) (x_34 Bool) (x_35 Int) (x_36 Int) (x_37 Int) (x_38 Int) (x_39 Int) (x_40 Int) (x_41 Int) (x_42 Int) (x_43 Int) (x_44 Int) (x_45 Int) (x_46 Int) (x_47 Int) (x_48 Int) (x_49 Bool) (x_50 Int) (x_51 Int) (x_52 Int) (x_53 Int) (x_54 Bool) (x_55 Int) (x_56 Int) (x_57 Int) (x_58 Int) (x_59 Int) (x_60 Int) (x_61 Int) (x_62 Int) (x_63 Int) (x_64 Bool)) Bool)

(constraint (forall ((call_Sofar.flby__AT0 Bool) (call_excludes4.excludes__AT0 Bool) (call_mesi.flby4__AT0 Int) (call_mesi.flby3__AT0 Int) (call_mesi.flby2__AT0 Int) (call_mesi.flby__AT0 Int) (call_mesi.xite20__AT0 Int) (call_mesi.garde_me4__AT0 Bool) (call_mesi.xite4__AT0 Int) (call_mesi.xite12__AT0 Int) (call_mesi.xite19__AT0 Int) (call_mesi.garde_me3__AT0 Bool) (call_mesi.xite3__AT0 Int) (call_mesi.xite11__AT0 Int) (call_mesi.xite__AT0 Int) (call_mesi.garde_me1__AT0 Bool) (call_mesi.xite9__AT0 Int) (call_mesi.xite29__AT0 Int) (call_mesi.xite28__AT0 Int) (param_etat_me4__AT0 Bool) (call_mesi.xite21__AT0 Int) (call_mesi.xite5__AT0 Int) (call_mesi.xite13__AT0 Int) (call_Abs4.xite__AT0 Int) (call_Abs4.Abs__AT0 Int) (call_Abs3.xite__AT0 Int) (call_Abs3.Abs__AT0 Int) (call_Abs2.xite__AT0 Int) (call_Abs2.Abs__AT0 Int) (call_Abs.xite__AT0 Int) (call_Abs.Abs__AT0 Int) (call_Sofar.Sofar__AT0 Bool) (param_etat_me3__AT0 Bool) (param_etat_me2__AT0 Bool) (param_etat_me1__AT0 Bool) (call_mesi.invalid_me__AT0 Int) (call_mesi.shared_me__AT0 Int) (call_mesi.exclusive_me__AT0 Int) (call_mesi.modified_me__AT0 Int) (call_mesi.xite32__AT0 Int) (call_mesi.xite31__AT0 Int) (call_mesi.xite25__AT0 Int) (call_mesi.xite24__AT0 Int) (call_mesi.xite23__AT0 Int) (call_mesi.xite17__AT0 Int) (call_mesi.xite16__AT0 Int) (call_mesi.xite15__AT0 Int) (call_mesi.xite8__AT0 Int) (call_mesi.xite7__AT0 Int) (env__AT0 Bool) (invalid_me__AT0 Int) (shared_me__AT0 Int) (exclusive_me__AT0 Int) (modified_me__AT0 Int) (_OK___AT0 Bool) (call_mesi.xite30__AT0 Int) (call_mesi.xite26__AT0 Int) (call_mesi.xite22__AT0 Int) (call_mesi.xite18__AT0 Int) (call_mesi.xite14__AT0 Int) (call_mesi.xite10__AT0 Int) (call_mesi.xite2__AT0 Int) (call_mesi.xite6__AT0 Int) (call_mesi.xite27__AT0 Int) (call_mesi.garde_me2__AT0 Bool)) (let ((a!1 (= call_excludes4.excludes__AT0 (not (or (and param_etat_me4__AT0 param_etat_me3__AT0) (and param_etat_me4__AT0 param_etat_me2__AT0) (and param_etat_me3__AT0 param_etat_me2__AT0) (and param_etat_me2__AT0 param_etat_me1__AT0) (and param_etat_me3__AT0 param_etat_me1__AT0) (and param_etat_me4__AT0 param_etat_me1__AT0))))) (a!2 (= (or (<= (+ call_Abs4.Abs__AT0 call_Abs3.Abs__AT0 call_Abs2.Abs__AT0 call_Abs.Abs__AT0) 3) (not env__AT0)) _OK___AT0))) (let ((a!3 (and (= call_Sofar.flby__AT0 call_excludes4.excludes__AT0) (= call_mesi.flby4__AT0 3) (= call_mesi.flby3__AT0 0) (= call_mesi.flby2__AT0 0) (= call_mesi.flby__AT0 0) (or (= call_mesi.xite20__AT0 0) (not call_mesi.garde_me4__AT0)) (or (not call_mesi.garde_me4__AT0) (= call_mesi.xite4__AT0 0)) (or (not call_mesi.garde_me4__AT0) (= call_mesi.xite12__AT0 1)) (or (= call_mesi.xite19__AT0 0) (not call_mesi.garde_me3__AT0)) (or (not call_mesi.garde_me3__AT0) (= call_mesi.xite3__AT0 0)) (or (not call_mesi.garde_me3__AT0) (= call_mesi.xite11__AT0 1)) (or (= call_mesi.xite__AT0 0) (not call_mesi.garde_me1__AT0)) (or (not call_mesi.garde_me1__AT0) (= call_mesi.xite9__AT0 0)) (or (= call_mesi.xite29__AT0 call_mesi.xite28__AT0) (not param_etat_me4__AT0)) (or (not param_etat_me4__AT0) (= call_mesi.xite20__AT0 call_mesi.xite21__AT0)) (or (not param_etat_me4__AT0) (= call_mesi.xite4__AT0 call_mesi.xite5__AT0)) (or (not param_etat_me4__AT0) (= call_mesi.xite12__AT0 call_mesi.xite13__AT0)) (= call_Abs4.xite__AT0 call_Abs4.Abs__AT0) (= call_Abs3.xite__AT0 call_Abs3.Abs__AT0) (= call_Abs2.xite__AT0 call_Abs2.Abs__AT0) (= call_Abs.xite__AT0 call_Abs.Abs__AT0) (= call_Sofar.flby__AT0 call_Sofar.Sofar__AT0) a!1 (= call_mesi.flby4__AT0 call_mesi.invalid_me__AT0) (= call_mesi.flby3__AT0 call_mesi.shared_me__AT0) (= call_mesi.flby2__AT0 call_mesi.exclusive_me__AT0) (= call_mesi.flby__AT0 call_mesi.modified_me__AT0) (or param_etat_me1__AT0 (= call_mesi.xite32__AT0 call_mesi.xite31__AT0)) (or (= call_mesi.xite32__AT0 call_mesi.xite25__AT0) (not param_etat_me1__AT0)) (or param_etat_me1__AT0 (= call_mesi.xite24__AT0 call_mesi.xite23__AT0)) (or (not param_etat_me1__AT0) (= call_mesi.xite24__AT0 call_mesi.xite17__AT0)) (or param_etat_me1__AT0 (= call_mesi.xite16__AT0 call_mesi.xite15__AT0)) (or (not param_etat_me1__AT0) (= call_mesi.xite9__AT0 call_mesi.xite16__AT0)) (or (not param_etat_me1__AT0) (= call_mesi.xite__AT0 call_mesi.xite8__AT0)) (or param_etat_me1__AT0 (= call_mesi.xite8__AT0 call_mesi.xite7__AT0)) (= call_Sofar.Sofar__AT0 env__AT0) (= call_mesi.invalid_me__AT0 invalid_me__AT0) (or (= (+ call_Abs4.xite__AT0 invalid_me__AT0) 0) (<= 0 invalid_me__AT0)) (or (not (<= 0 invalid_me__AT0)) (= call_Abs4.xite__AT0 invalid_me__AT0)) (= call_mesi.shared_me__AT0 shared_me__AT0) (or (= (+ call_Abs3.xite__AT0 shared_me__AT0) 0) (<= 0 shared_me__AT0)) (or (not (<= 0 shared_me__AT0)) (= call_Abs3.xite__AT0 shared_me__AT0)) (= call_mesi.exclusive_me__AT0 exclusive_me__AT0) (or (= (+ call_Abs2.xite__AT0 exclusive_me__AT0) 0) (<= 0 exclusive_me__AT0)) (or (not (<= 0 exclusive_me__AT0)) (= call_Abs2.xite__AT0 exclusive_me__AT0)) (= call_mesi.modified_me__AT0 modified_me__AT0) (or (= (+ call_Abs.xite__AT0 modified_me__AT0) 0) (<= 0 modified_me__AT0)) (or (not (<= 0 modified_me__AT0)) (= call_Abs.xite__AT0 modified_me__AT0)) a!2 (or param_etat_me2__AT0 (= call_mesi.xite31__AT0 call_mesi.xite30__AT0)) (or (= call_mesi.xite31__AT0 call_mesi.xite26__AT0) (not param_etat_me2__AT0)) (or param_etat_me2__AT0 (= call_mesi.xite23__AT0 call_mesi.xite22__AT0)) (or (not param_etat_me2__AT0) (= call_mesi.xite23__AT0 call_mesi.xite18__AT0)) (or param_etat_me2__AT0 (= call_mesi.xite15__AT0 call_mesi.xite14__AT0)) (or (not param_etat_me2__AT0) (= call_mesi.xite15__AT0 call_mesi.xite10__AT0)) (or (not param_etat_me2__AT0) (= call_mesi.xite7__AT0 call_mesi.xite2__AT0)) (or param_etat_me2__AT0 (= call_mesi.xite7__AT0 call_mesi.xite6__AT0)) (or param_etat_me3__AT0 (= call_mesi.xite29__AT0 call_mesi.xite30__AT0)) (or (= call_mesi.xite30__AT0 call_mesi.xite27__AT0) (not param_etat_me3__AT0)) (or param_etat_me3__AT0 (= call_mesi.xite21__AT0 call_mesi.xite22__AT0)) (or (not param_etat_me3__AT0) (= call_mesi.xite19__AT0 call_mesi.xite22__AT0)) (or param_etat_me3__AT0 (= call_mesi.xite13__AT0 call_mesi.xite14__AT0)) (or (not param_etat_me3__AT0) (= call_mesi.xite11__AT0 call_mesi.xite14__AT0)) (or (not param_etat_me3__AT0) (= call_mesi.xite3__AT0 call_mesi.xite6__AT0)) (or param_etat_me3__AT0 (= call_mesi.xite5__AT0 call_mesi.xite6__AT0))))) (=> a!3 (state call_Sofar.flby__AT0 call_excludes4.excludes__AT0 call_mesi.flby4__AT0 call_mesi.flby3__AT0 call_mesi.flby2__AT0 call_mesi.flby__AT0 call_mesi.xite20__AT0 call_mesi.garde_me4__AT0 call_mesi.xite4__AT0 call_mesi.xite12__AT0 call_mesi.xite19__AT0 call_mesi.garde_me3__AT0 call_mesi.xite3__AT0 call_mesi.xite11__AT0 call_mesi.xite__AT0 call_mesi.garde_me1__AT0 call_mesi.xite9__AT0 call_mesi.xite29__AT0 call_mesi.xite28__AT0 param_etat_me4__AT0 call_mesi.xite21__AT0 call_mesi.xite5__AT0 call_mesi.xite13__AT0 call_Abs4.xite__AT0 call_Abs4.Abs__AT0 call_Abs3.xite__AT0 call_Abs3.Abs__AT0 call_Abs2.xite__AT0 call_Abs2.Abs__AT0 call_Abs.xite__AT0 call_Abs.Abs__AT0 call_Sofar.Sofar__AT0 param_etat_me3__AT0 param_etat_me2__AT0 param_etat_me1__AT0 call_mesi.invalid_me__AT0 call_mesi.shared_me__AT0 call_mesi.exclusive_me__AT0 call_mesi.modified_me__AT0 call_mesi.xite32__AT0 call_mesi.xite31__AT0 call_mesi.xite25__AT0 call_mesi.xite24__AT0 call_mesi.xite23__AT0 call_mesi.xite17__AT0 call_mesi.xite16__AT0 call_mesi.xite15__AT0 call_mesi.xite8__AT0 call_mesi.xite7__AT0 env__AT0 invalid_me__AT0 shared_me__AT0 exclusive_me__AT0 modified_me__AT0 _OK___AT0 call_mesi.xite30__AT0 call_mesi.xite26__AT0 call_mesi.xite22__AT0 call_mesi.xite18__AT0 call_mesi.xite14__AT0 call_mesi.xite10__AT0 call_mesi.xite2__AT0 call_mesi.xite6__AT0 call_mesi.xite27__AT0 call_mesi.garde_me2__AT0))))))
(constraint (forall ((call_Sofar.flby__AT0 Bool) (call_excludes4.excludes__AT0 Bool) (call_mesi.flby4__AT0 Int) (call_mesi.flby3__AT0 Int) (call_mesi.flby2__AT0 Int) (call_mesi.flby__AT0 Int) (call_mesi.xite20__AT0 Int) (call_mesi.garde_me4__AT0 Bool) (call_mesi.xite4__AT0 Int) (call_mesi.xite12__AT0 Int) (call_mesi.xite19__AT0 Int) (call_mesi.garde_me3__AT0 Bool) (call_mesi.xite3__AT0 Int) (call_mesi.xite11__AT0 Int) (call_mesi.xite__AT0 Int) (call_mesi.garde_me1__AT0 Bool) (call_mesi.xite9__AT0 Int) (call_mesi.xite29__AT0 Int) (call_mesi.xite28__AT0 Int) (param_etat_me4__AT0 Bool) (call_mesi.xite21__AT0 Int) (call_mesi.xite5__AT0 Int) (call_mesi.xite13__AT0 Int) (call_Abs4.xite__AT0 Int) (call_Abs4.Abs__AT0 Int) (call_Abs3.xite__AT0 Int) (call_Abs3.Abs__AT0 Int) (call_Abs2.xite__AT0 Int) (call_Abs2.Abs__AT0 Int) (call_Abs.xite__AT0 Int) (call_Abs.Abs__AT0 Int) (call_Sofar.Sofar__AT0 Bool) (param_etat_me3__AT0 Bool) (param_etat_me2__AT0 Bool) (param_etat_me1__AT0 Bool) (call_mesi.invalid_me__AT0 Int) (call_mesi.shared_me__AT0 Int) (call_mesi.exclusive_me__AT0 Int) (call_mesi.modified_me__AT0 Int) (call_mesi.xite32__AT0 Int) (call_mesi.xite31__AT0 Int) (call_mesi.xite25__AT0 Int) (call_mesi.xite24__AT0 Int) (call_mesi.xite23__AT0 Int) (call_mesi.xite17__AT0 Int) (call_mesi.xite16__AT0 Int) (call_mesi.xite15__AT0 Int) (call_mesi.xite8__AT0 Int) (call_mesi.xite7__AT0 Int) (env__AT0 Bool) (invalid_me__AT0 Int) (shared_me__AT0 Int) (exclusive_me__AT0 Int) (modified_me__AT0 Int) (_OK___AT0 Bool) (call_mesi.xite30__AT0 Int) (call_mesi.xite26__AT0 Int) (call_mesi.xite22__AT0 Int) (call_mesi.xite18__AT0 Int) (call_mesi.xite14__AT0 Int) (call_mesi.xite10__AT0 Int) (call_mesi.xite2__AT0 Int) (call_mesi.xite6__AT0 Int) (call_mesi.xite27__AT0 Int) (call_mesi.garde_me2__AT0 Bool) (call_Abs4.Abs__AT1 Int) (call_Abs4.xite__AT1 Int) (call_Abs3.Abs__AT1 Int) (call_Abs3.xite__AT1 Int) (call_Abs2.Abs__AT1 Int) (call_Abs2.xite__AT1 Int) (call_Abs.Abs__AT1 Int) (call_Abs.xite__AT1 Int) (call_Sofar.Sofar__AT1 Bool) (call_Sofar.flby__AT1 Bool) (param_etat_me3__AT1 Bool) (param_etat_me4__AT1 Bool) (param_etat_me2__AT1 Bool) (param_etat_me1__AT1 Bool) (call_excludes4.excludes__AT1 Bool) (call_mesi.invalid_me__AT1 Int) (call_mesi.flby4__AT1 Int) (call_mesi.shared_me__AT1 Int) (call_mesi.flby3__AT1 Int) (call_mesi.exclusive_me__AT1 Int) (call_mesi.flby2__AT1 Int) (call_mesi.modified_me__AT1 Int) (call_mesi.flby__AT1 Int) (call_mesi.xite31__AT1 Int) (call_mesi.xite32__AT1 Int) (call_mesi.xite25__AT1 Int) (call_mesi.xite23__AT1 Int) (call_mesi.xite24__AT1 Int) (call_mesi.xite17__AT1 Int) (call_mesi.xite15__AT1 Int) (call_mesi.xite16__AT1 Int) (call_mesi.xite9__AT1 Int) (call_mesi.xite__AT1 Int) (call_mesi.xite8__AT1 Int) (call_mesi.xite7__AT1 Int) (env__AT1 Bool) (invalid_me__AT1 Int) (shared_me__AT1 Int) (exclusive_me__AT1 Int) (modified_me__AT1 Int) (_OK___AT1 Bool) (call_mesi.xite30__AT1 Int) (call_mesi.xite26__AT1 Int) (call_mesi.xite22__AT1 Int) (call_mesi.xite18__AT1 Int) (call_mesi.xite14__AT1 Int) (call_mesi.xite10__AT1 Int) (call_mesi.xite2__AT1 Int) (call_mesi.xite6__AT1 Int) (call_mesi.xite29__AT1 Int) (call_mesi.xite27__AT1 Int) (call_mesi.xite21__AT1 Int) (call_mesi.xite19__AT1 Int) (call_mesi.xite13__AT1 Int) (call_mesi.xite11__AT1 Int) (call_mesi.xite3__AT1 Int) (call_mesi.xite5__AT1 Int) (call_mesi.garde_me4__AT1 Bool) (call_mesi.xite20__AT1 Int) (call_mesi.xite4__AT1 Int) (call_mesi.xite12__AT1 Int) (call_mesi.garde_me3__AT1 Bool) (call_mesi.garde_me2__AT1 Bool) (call_mesi.garde_me1__AT1 Bool) (call_mesi.xite28__AT1 Int)) (let ((a!1 (= call_excludes4.excludes__AT0 (not (or (and param_etat_me4__AT0 param_etat_me3__AT0) (and param_etat_me4__AT0 param_etat_me2__AT0) (and param_etat_me3__AT0 param_etat_me2__AT0) (and param_etat_me2__AT0 param_etat_me1__AT0) (and param_etat_me3__AT0 param_etat_me1__AT0) (and param_etat_me4__AT0 param_etat_me1__AT0))))) (a!2 (= (or (<= (+ call_Abs4.Abs__AT0 call_Abs3.Abs__AT0 call_Abs2.Abs__AT0 call_Abs.Abs__AT0) 3) (not env__AT0)) _OK___AT0)) (a!3 (= (not (or (and param_etat_me3__AT1 param_etat_me4__AT1) (and param_etat_me4__AT1 param_etat_me2__AT1) (and param_etat_me3__AT1 param_etat_me2__AT1) (and param_etat_me2__AT1 param_etat_me1__AT1) (and param_etat_me3__AT1 param_etat_me1__AT1) (and param_etat_me4__AT1 param_etat_me1__AT1))) call_excludes4.excludes__AT1)) (a!4 (= (or (<= (+ call_Abs4.Abs__AT1 call_Abs3.Abs__AT1 call_Abs2.Abs__AT1 call_Abs.Abs__AT1) 3) (not env__AT1)) _OK___AT1)) (a!5 (= (+ call_mesi.invalid_me__AT0 (* (- 1) call_mesi.xite25__AT1)) 1)) (a!6 (= (+ call_mesi.exclusive_me__AT0 (* (- 1) call_mesi.xite10__AT1)) 1)) (a!7 (= (+ call_mesi.invalid_me__AT0 call_mesi.shared_me__AT0 call_mesi.exclusive_me__AT0 call_mesi.modified_me__AT0 (* (- 1) call_mesi.xite28__AT1)) 1)) (a!8 (= (+ call_mesi.invalid_me__AT0 call_mesi.shared_me__AT0 call_mesi.exclusive_me__AT0 call_mesi.modified_me__AT0 (* (- 1) call_mesi.xite27__AT1)) 1)) (a!9 (= (+ call_mesi.shared_me__AT0 call_mesi.exclusive_me__AT0 call_mesi.modified_me__AT0 (* (- 1) call_mesi.xite17__AT1)) 2)) (a!10 (= (+ call_mesi.modified_me__AT0 (* (- 1) call_mesi.xite2__AT1)) 1))) (let ((a!11 (and (state call_Sofar.flby__AT0 call_excludes4.excludes__AT0 call_mesi.flby4__AT0 call_mesi.flby3__AT0 call_mesi.flby2__AT0 call_mesi.flby__AT0 call_mesi.xite20__AT0 call_mesi.garde_me4__AT0 call_mesi.xite4__AT0 call_mesi.xite12__AT0 call_mesi.xite19__AT0 call_mesi.garde_me3__AT0 call_mesi.xite3__AT0 call_mesi.xite11__AT0 call_mesi.xite__AT0 call_mesi.garde_me1__AT0 call_mesi.xite9__AT0 call_mesi.xite29__AT0 call_mesi.xite28__AT0 param_etat_me4__AT0 call_mesi.xite21__AT0 call_mesi.xite5__AT0 call_mesi.xite13__AT0 call_Abs4.xite__AT0 call_Abs4.Abs__AT0 call_Abs3.xite__AT0 call_Abs3.Abs__AT0 call_Abs2.xite__AT0 call_Abs2.Abs__AT0 call_Abs.xite__AT0 call_Abs.Abs__AT0 call_Sofar.Sofar__AT0 param_etat_me3__AT0 param_etat_me2__AT0 param_etat_me1__AT0 call_mesi.invalid_me__AT0 call_mesi.shared_me__AT0 call_mesi.exclusive_me__AT0 call_mesi.modified_me__AT0 call_mesi.xite32__AT0 call_mesi.xite31__AT0 call_mesi.xite25__AT0 call_mesi.xite24__AT0 call_mesi.xite23__AT0 call_mesi.xite17__AT0 call_mesi.xite16__AT0 call_mesi.xite15__AT0 call_mesi.xite8__AT0 call_mesi.xite7__AT0 env__AT0 invalid_me__AT0 shared_me__AT0 exclusive_me__AT0 modified_me__AT0 _OK___AT0 call_mesi.xite30__AT0 call_mesi.xite26__AT0 call_mesi.xite22__AT0 call_mesi.xite18__AT0 call_mesi.xite14__AT0 call_mesi.xite10__AT0 call_mesi.xite2__AT0 call_mesi.xite6__AT0 call_mesi.xite27__AT0 call_mesi.garde_me2__AT0) (= call_Abs4.xite__AT0 call_Abs4.Abs__AT0) (= call_Abs3.xite__AT0 call_Abs3.Abs__AT0) (= call_Abs2.xite__AT0 call_Abs2.Abs__AT0) (= call_Abs.xite__AT0 call_Abs.Abs__AT0) (= call_Sofar.flby__AT0 call_Sofar.Sofar__AT0) a!1 (= call_mesi.flby4__AT0 call_mesi.invalid_me__AT0) (= call_mesi.flby3__AT0 call_mesi.shared_me__AT0) (= call_mesi.flby2__AT0 call_mesi.exclusive_me__AT0) (= call_mesi.flby__AT0 call_mesi.modified_me__AT0) (or param_etat_me1__AT0 (= call_mesi.xite32__AT0 call_mesi.xite31__AT0)) (or (= call_mesi.xite32__AT0 call_mesi.xite25__AT0) (not param_etat_me1__AT0)) (or param_etat_me1__AT0 (= call_mesi.xite24__AT0 call_mesi.xite23__AT0)) (or (not param_etat_me1__AT0) (= call_mesi.xite24__AT0 call_mesi.xite17__AT0)) (or param_etat_me1__AT0 (= call_mesi.xite16__AT0 call_mesi.xite15__AT0)) (or (not param_etat_me1__AT0) (= call_mesi.xite9__AT0 call_mesi.xite16__AT0)) (or (not param_etat_me1__AT0) (= call_mesi.xite__AT0 call_mesi.xite8__AT0)) (or param_etat_me1__AT0 (= call_mesi.xite8__AT0 call_mesi.xite7__AT0)) (= call_Sofar.Sofar__AT0 env__AT0) (= call_mesi.invalid_me__AT0 invalid_me__AT0) (or (= (+ call_Abs4.xite__AT0 invalid_me__AT0) 0) (<= 0 invalid_me__AT0)) (or (not (<= 0 invalid_me__AT0)) (= call_Abs4.xite__AT0 invalid_me__AT0)) (= call_mesi.shared_me__AT0 shared_me__AT0) (or (= (+ call_Abs3.xite__AT0 shared_me__AT0) 0) (<= 0 shared_me__AT0)) (or (not (<= 0 shared_me__AT0)) (= call_Abs3.xite__AT0 shared_me__AT0)) (= call_mesi.exclusive_me__AT0 exclusive_me__AT0) (or (= (+ call_Abs2.xite__AT0 exclusive_me__AT0) 0) (<= 0 exclusive_me__AT0)) (or (not (<= 0 exclusive_me__AT0)) (= call_Abs2.xite__AT0 exclusive_me__AT0)) (= call_mesi.modified_me__AT0 modified_me__AT0) (or (= (+ call_Abs.xite__AT0 modified_me__AT0) 0) (<= 0 modified_me__AT0)) (or (not (<= 0 modified_me__AT0)) (= call_Abs.xite__AT0 modified_me__AT0)) a!2 (or param_etat_me2__AT0 (= call_mesi.xite31__AT0 call_mesi.xite30__AT0)) (or (= call_mesi.xite31__AT0 call_mesi.xite26__AT0) (not param_etat_me2__AT0)) (or param_etat_me2__AT0 (= call_mesi.xite23__AT0 call_mesi.xite22__AT0)) (or (not param_etat_me2__AT0) (= call_mesi.xite23__AT0 call_mesi.xite18__AT0)) (or param_etat_me2__AT0 (= call_mesi.xite15__AT0 call_mesi.xite14__AT0)) (or (not param_etat_me2__AT0) (= call_mesi.xite15__AT0 call_mesi.xite10__AT0)) (or (not param_etat_me2__AT0) (= call_mesi.xite7__AT0 call_mesi.xite2__AT0)) (or param_etat_me2__AT0 (= call_mesi.xite7__AT0 call_mesi.xite6__AT0)) (or param_etat_me3__AT0 (= call_mesi.xite29__AT0 call_mesi.xite30__AT0)) (or (= call_mesi.xite30__AT0 call_mesi.xite27__AT0) (not param_etat_me3__AT0)) (or param_etat_me3__AT0 (= call_mesi.xite21__AT0 call_mesi.xite22__AT0)) (or (not param_etat_me3__AT0) (= call_mesi.xite19__AT0 call_mesi.xite22__AT0)) (or param_etat_me3__AT0 (= call_mesi.xite13__AT0 call_mesi.xite14__AT0)) (or (not param_etat_me3__AT0) (= call_mesi.xite11__AT0 call_mesi.xite14__AT0)) (or (not param_etat_me3__AT0) (= call_mesi.xite3__AT0 call_mesi.xite6__AT0)) (or param_etat_me3__AT0 (= call_mesi.xite5__AT0 call_mesi.xite6__AT0)) (= call_Abs4.Abs__AT1 call_Abs4.xite__AT1) (= call_Abs3.Abs__AT1 call_Abs3.xite__AT1) (= call_Abs2.Abs__AT1 call_Abs2.xite__AT1) (= call_Abs.Abs__AT1 call_Abs.xite__AT1) (= call_Sofar.Sofar__AT1 call_Sofar.flby__AT1) a!3 (= call_mesi.invalid_me__AT1 call_mesi.flby4__AT1) (= call_mesi.shared_me__AT1 call_mesi.flby3__AT1) (= call_mesi.exclusive_me__AT1 call_mesi.flby2__AT1) (= call_mesi.modified_me__AT1 call_mesi.flby__AT1) (or param_etat_me1__AT1 (= call_mesi.xite31__AT1 call_mesi.xite32__AT1)) (or (= call_mesi.xite32__AT1 call_mesi.xite25__AT1) (not param_etat_me1__AT1)) (or param_etat_me1__AT1 (= call_mesi.xite23__AT1 call_mesi.xite24__AT1)) (or (not param_etat_me1__AT1) (= call_mesi.xite24__AT1 call_mesi.xite17__AT1)) (or param_etat_me1__AT1 (= call_mesi.xite15__AT1 call_mesi.xite16__AT1)) (or (not param_etat_me1__AT1) (= call_mesi.xite16__AT1 call_mesi.xite9__AT1)) (or (not param_etat_me1__AT1) (= call_mesi.xite__AT1 call_mesi.xite8__AT1)) (or param_etat_me1__AT1 (= call_mesi.xite8__AT1 call_mesi.xite7__AT1)) (= call_Sofar.Sofar__AT1 env__AT1) (= call_mesi.invalid_me__AT1 invalid_me__AT1) (or (= (+ call_Abs4.xite__AT1 invalid_me__AT1) 0) (<= 0 invalid_me__AT1)) (or (not (<= 0 invalid_me__AT1)) (= call_Abs4.xite__AT1 invalid_me__AT1)) (= call_mesi.shared_me__AT1 shared_me__AT1) (or (= (+ call_Abs3.xite__AT1 shared_me__AT1) 0) (<= 0 shared_me__AT1)) (or (not (<= 0 shared_me__AT1)) (= call_Abs3.xite__AT1 shared_me__AT1)) (= call_mesi.exclusive_me__AT1 exclusive_me__AT1) (or (= (+ call_Abs2.xite__AT1 exclusive_me__AT1) 0) (<= 0 exclusive_me__AT1)) (or (not (<= 0 exclusive_me__AT1)) (= call_Abs2.xite__AT1 exclusive_me__AT1)) (= call_mesi.modified_me__AT1 modified_me__AT1) (or (= (+ call_Abs.xite__AT1 modified_me__AT1) 0) (<= 0 modified_me__AT1)) (or (not (<= 0 modified_me__AT1)) (= call_Abs.xite__AT1 modified_me__AT1)) a!4 (or param_etat_me2__AT1 (= call_mesi.xite31__AT1 call_mesi.xite30__AT1)) (or (= call_mesi.xite31__AT1 call_mesi.xite26__AT1) (not param_etat_me2__AT1)) (or param_etat_me2__AT1 (= call_mesi.xite23__AT1 call_mesi.xite22__AT1)) (or (not param_etat_me2__AT1) (= call_mesi.xite23__AT1 call_mesi.xite18__AT1)) (or param_etat_me2__AT1 (= call_mesi.xite15__AT1 call_mesi.xite14__AT1)) (or (not param_etat_me2__AT1) (= call_mesi.xite15__AT1 call_mesi.xite10__AT1)) (or (not param_etat_me2__AT1) (= call_mesi.xite7__AT1 call_mesi.xite2__AT1)) (or param_etat_me2__AT1 (= call_mesi.xite7__AT1 call_mesi.xite6__AT1)) (or param_etat_me3__AT1 (= call_mesi.xite30__AT1 call_mesi.xite29__AT1)) (or (= call_mesi.xite30__AT1 call_mesi.xite27__AT1) (not param_etat_me3__AT1)) (or param_etat_me3__AT1 (= call_mesi.xite22__AT1 call_mesi.xite21__AT1)) (or (not param_etat_me3__AT1) (= call_mesi.xite22__AT1 call_mesi.xite19__AT1)) (or param_etat_me3__AT1 (= call_mesi.xite14__AT1 call_mesi.xite13__AT1)) (or (not param_etat_me3__AT1) (= call_mesi.xite14__AT1 call_mesi.xite11__AT1)) (or (not param_etat_me3__AT1) (= call_mesi.xite6__AT1 call_mesi.xite3__AT1)) (or param_etat_me3__AT1 (= call_mesi.xite6__AT1 call_mesi.xite5__AT1)) (= call_Sofar.flby__AT1 (and call_Sofar.Sofar__AT0 call_excludes4.excludes__AT1)) (= call_mesi.flby4__AT1 call_mesi.xite32__AT1) (= call_mesi.flby3__AT1 call_mesi.xite24__AT1) (= call_mesi.flby2__AT1 call_mesi.xite16__AT1) (= call_mesi.flby__AT1 call_mesi.xite8__AT1) (= (<= 1 call_mesi.invalid_me__AT0) call_mesi.garde_me4__AT1) (or (= call_mesi.xite20__AT1 0) (not call_mesi.garde_me4__AT1)) (or (not call_mesi.garde_me4__AT1) (= call_mesi.xite4__AT1 0)) (or (not call_mesi.garde_me4__AT1) (= call_mesi.xite12__AT1 1)) (= (<= 1 call_mesi.shared_me__AT0) call_mesi.garde_me3__AT1) (or (= call_mesi.xite19__AT1 0) (not call_mesi.garde_me3__AT1)) (or (not call_mesi.garde_me3__AT1) (= call_mesi.xite3__AT1 0)) (or (not call_mesi.garde_me3__AT1) (= call_mesi.xite11__AT1 1)) (= (<= 1 call_mesi.exclusive_me__AT0) call_mesi.garde_me2__AT1) (= (<= 1 call_mesi.invalid_me__AT0) call_mesi.garde_me1__AT1) (or (= call_mesi.xite__AT1 0) (not call_mesi.garde_me1__AT1)) (or (not call_mesi.garde_me1__AT1) (= call_mesi.xite9__AT1 0)) (or call_mesi.garde_me4__AT1 (= call_mesi.invalid_me__AT0 call_mesi.xite28__AT1)) (or call_mesi.garde_me3__AT1 (= call_mesi.invalid_me__AT0 call_mesi.xite27__AT1)) (or call_mesi.garde_me2__AT1 (= call_mesi.invalid_me__AT0 call_mesi.xite26__AT1)) (or (= call_mesi.invalid_me__AT0 call_mesi.xite26__AT1) (not call_mesi.garde_me2__AT1)) (or (not call_mesi.garde_me1__AT1) a!5) (or call_mesi.garde_me1__AT1 (= call_mesi.invalid_me__AT0 call_mesi.xite25__AT1)) (or call_mesi.garde_me4__AT1 (= call_mesi.shared_me__AT0 call_mesi.xite20__AT1)) (or call_mesi.garde_me3__AT1 (= call_mesi.shared_me__AT0 call_mesi.xite19__AT1)) (or call_mesi.garde_me2__AT1 (= call_mesi.shared_me__AT0 call_mesi.xite18__AT1)) (or call_mesi.garde_me1__AT1 (= call_mesi.shared_me__AT0 call_mesi.xite17__AT1)) (or (not call_mesi.garde_me2__AT1) (= call_mesi.shared_me__AT0 call_mesi.xite18__AT1)) (or call_mesi.garde_me4__AT1 (= call_mesi.exclusive_me__AT0 call_mesi.xite12__AT1)) (or call_mesi.garde_me3__AT1 (= call_mesi.exclusive_me__AT0 call_mesi.xite11__AT1)) (or call_mesi.garde_me2__AT1 (= call_mesi.exclusive_me__AT0 call_mesi.xite10__AT1)) (or call_mesi.garde_me1__AT1 (= call_mesi.exclusive_me__AT0 call_mesi.xite9__AT1)) (or (not call_mesi.garde_me2__AT1) a!6) (or param_etat_me4__AT1 (= call_mesi.invalid_me__AT0 call_mesi.xite29__AT1)) (or (= call_mesi.xite29__AT1 call_mesi.xite28__AT1) (not param_etat_me4__AT1)) (or param_etat_me4__AT1 (= call_mesi.shared_me__AT0 call_mesi.xite21__AT1)) (or (not param_etat_me4__AT1) (= call_mesi.xite21__AT1 call_mesi.xite20__AT1)) (or param_etat_me4__AT1 (= call_mesi.exclusive_me__AT0 call_mesi.xite13__AT1)) (or (not param_etat_me4__AT1) (= call_mesi.xite13__AT1 call_mesi.xite12__AT1)) (or (not param_etat_me4__AT1) (= call_mesi.xite5__AT1 call_mesi.xite4__AT1)) (or param_etat_me4__AT1 (= call_mesi.modified_me__AT0 call_mesi.xite5__AT1)) (or (not call_mesi.garde_me4__AT1) a!7) (or (not call_mesi.garde_me3__AT1) a!8) (or (not call_mesi.garde_me1__AT1) a!9) (or call_mesi.garde_me4__AT1 (= call_mesi.modified_me__AT0 call_mesi.xite4__AT1)) (or call_mesi.garde_me3__AT1 (= call_mesi.modified_me__AT0 call_mesi.xite3__AT1)) (or call_mesi.garde_me2__AT1 (= call_mesi.modified_me__AT0 call_mesi.xite2__AT1)) (or call_mesi.garde_me1__AT1 (= call_mesi.modified_me__AT0 call_mesi.xite__AT1)) (or (not call_mesi.garde_me2__AT1) a!10)))) (=> a!11 (state call_Sofar.flby__AT1 call_excludes4.excludes__AT1 call_mesi.flby4__AT1 call_mesi.flby3__AT1 call_mesi.flby2__AT1 call_mesi.flby__AT1 call_mesi.xite20__AT1 call_mesi.garde_me4__AT1 call_mesi.xite4__AT1 call_mesi.xite12__AT1 call_mesi.xite19__AT1 call_mesi.garde_me3__AT1 call_mesi.xite3__AT1 call_mesi.xite11__AT1 call_mesi.xite__AT1 call_mesi.garde_me1__AT1 call_mesi.xite9__AT1 call_mesi.xite29__AT1 call_mesi.xite28__AT1 param_etat_me4__AT1 call_mesi.xite21__AT1 call_mesi.xite5__AT1 call_mesi.xite13__AT1 call_Abs4.xite__AT1 call_Abs4.Abs__AT1 call_Abs3.xite__AT1 call_Abs3.Abs__AT1 call_Abs2.xite__AT1 call_Abs2.Abs__AT1 call_Abs.xite__AT1 call_Abs.Abs__AT1 call_Sofar.Sofar__AT1 param_etat_me3__AT1 param_etat_me2__AT1 param_etat_me1__AT1 call_mesi.invalid_me__AT1 call_mesi.shared_me__AT1 call_mesi.exclusive_me__AT1 call_mesi.modified_me__AT1 call_mesi.xite32__AT1 call_mesi.xite31__AT1 call_mesi.xite25__AT1 call_mesi.xite24__AT1 call_mesi.xite23__AT1 call_mesi.xite17__AT1 call_mesi.xite16__AT1 call_mesi.xite15__AT1 call_mesi.xite8__AT1 call_mesi.xite7__AT1 env__AT1 invalid_me__AT1 shared_me__AT1 exclusive_me__AT1 modified_me__AT1 _OK___AT1 call_mesi.xite30__AT1 call_mesi.xite26__AT1 call_mesi.xite22__AT1 call_mesi.xite18__AT1 call_mesi.xite14__AT1 call_mesi.xite10__AT1 call_mesi.xite2__AT1 call_mesi.xite6__AT1 call_mesi.xite27__AT1 call_mesi.garde_me2__AT1))))))
(constraint (forall ((call_Sofar.flby__AT0 Bool) (call_excludes4.excludes__AT0 Bool) (call_mesi.flby4__AT0 Int) (call_mesi.flby3__AT0 Int) (call_mesi.flby2__AT0 Int) (call_mesi.flby__AT0 Int) (call_mesi.xite20__AT0 Int) (call_mesi.garde_me4__AT0 Bool) (call_mesi.xite4__AT0 Int) (call_mesi.xite12__AT0 Int) (call_mesi.xite19__AT0 Int) (call_mesi.garde_me3__AT0 Bool) (call_mesi.xite3__AT0 Int) (call_mesi.xite11__AT0 Int) (call_mesi.xite__AT0 Int) (call_mesi.garde_me1__AT0 Bool) (call_mesi.xite9__AT0 Int) (call_mesi.xite29__AT0 Int) (call_mesi.xite28__AT0 Int) (param_etat_me4__AT0 Bool) (call_mesi.xite21__AT0 Int) (call_mesi.xite5__AT0 Int) (call_mesi.xite13__AT0 Int) (call_Abs4.xite__AT0 Int) (call_Abs4.Abs__AT0 Int) (call_Abs3.xite__AT0 Int) (call_Abs3.Abs__AT0 Int) (call_Abs2.xite__AT0 Int) (call_Abs2.Abs__AT0 Int) (call_Abs.xite__AT0 Int) (call_Abs.Abs__AT0 Int) (call_Sofar.Sofar__AT0 Bool) (param_etat_me3__AT0 Bool) (param_etat_me2__AT0 Bool) (param_etat_me1__AT0 Bool) (call_mesi.invalid_me__AT0 Int) (call_mesi.shared_me__AT0 Int) (call_mesi.exclusive_me__AT0 Int) (call_mesi.modified_me__AT0 Int) (call_mesi.xite32__AT0 Int) (call_mesi.xite31__AT0 Int) (call_mesi.xite25__AT0 Int) (call_mesi.xite24__AT0 Int) (call_mesi.xite23__AT0 Int) (call_mesi.xite17__AT0 Int) (call_mesi.xite16__AT0 Int) (call_mesi.xite15__AT0 Int) (call_mesi.xite8__AT0 Int) (call_mesi.xite7__AT0 Int) (env__AT0 Bool) (invalid_me__AT0 Int) (shared_me__AT0 Int) (exclusive_me__AT0 Int) (modified_me__AT0 Int) (_OK___AT0 Bool) (call_mesi.xite30__AT0 Int) (call_mesi.xite26__AT0 Int) (call_mesi.xite22__AT0 Int) (call_mesi.xite18__AT0 Int) (call_mesi.xite14__AT0 Int) (call_mesi.xite10__AT0 Int) (call_mesi.xite2__AT0 Int) (call_mesi.xite6__AT0 Int) (call_mesi.xite27__AT0 Int) (call_mesi.garde_me2__AT0 Bool)) (=> (state call_Sofar.flby__AT0 call_excludes4.excludes__AT0 call_mesi.flby4__AT0 call_mesi.flby3__AT0 call_mesi.flby2__AT0 call_mesi.flby__AT0 call_mesi.xite20__AT0 call_mesi.garde_me4__AT0 call_mesi.xite4__AT0 call_mesi.xite12__AT0 call_mesi.xite19__AT0 call_mesi.garde_me3__AT0 call_mesi.xite3__AT0 call_mesi.xite11__AT0 call_mesi.xite__AT0 call_mesi.garde_me1__AT0 call_mesi.xite9__AT0 call_mesi.xite29__AT0 call_mesi.xite28__AT0 param_etat_me4__AT0 call_mesi.xite21__AT0 call_mesi.xite5__AT0 call_mesi.xite13__AT0 call_Abs4.xite__AT0 call_Abs4.Abs__AT0 call_Abs3.xite__AT0 call_Abs3.Abs__AT0 call_Abs2.xite__AT0 call_Abs2.Abs__AT0 call_Abs.xite__AT0 call_Abs.Abs__AT0 call_Sofar.Sofar__AT0 param_etat_me3__AT0 param_etat_me2__AT0 param_etat_me1__AT0 call_mesi.invalid_me__AT0 call_mesi.shared_me__AT0 call_mesi.exclusive_me__AT0 call_mesi.modified_me__AT0 call_mesi.xite32__AT0 call_mesi.xite31__AT0 call_mesi.xite25__AT0 call_mesi.xite24__AT0 call_mesi.xite23__AT0 call_mesi.xite17__AT0 call_mesi.xite16__AT0 call_mesi.xite15__AT0 call_mesi.xite8__AT0 call_mesi.xite7__AT0 env__AT0 invalid_me__AT0 shared_me__AT0 exclusive_me__AT0 modified_me__AT0 _OK___AT0 call_mesi.xite30__AT0 call_mesi.xite26__AT0 call_mesi.xite22__AT0 call_mesi.xite18__AT0 call_mesi.xite14__AT0 call_mesi.xite10__AT0 call_mesi.xite2__AT0 call_mesi.xite6__AT0 call_mesi.xite27__AT0 call_mesi.garde_me2__AT0) false)))

(check-synth)

